c case136ma in MATPOWER https://matpower.org
p edge 136 135
e 1 2
e 2 3
e 3 4
e 4 5
e 5 6
e 6 7
e 7 8
e 7 11
e 8 9
e 9 10
e 11 12
e 12 13
e 12 15
e 13 14
e 15 16
e 15 17
e 17 18
e 18 19
e 19 20
e 19 21
e 21 22
e 22 23
e 22 24
e 24 25
e 25 26
e 25 41
e 25 53
e 25 69
e 25 79
e 25 93
e 25 94
e 26 27
e 27 28
e 28 29
e 28 30
e 30 31
e 30 32
e 32 33
e 32 34
e 34 35
e 35 36
e 36 37
e 37 38
e 38 39
e 39 40
e 41 42
e 42 43
e 43 44
e 44 45
e 45 46
e 46 47
e 46 48
e 48 49
e 48 51
e 49 50
e 51 52
e 53 54
e 54 55
e 55 56
e 56 57
e 57 58
e 58 59
e 58 60
e 60 61
e 60 62
e 62 63
e 62 64
e 62 65
e 65 66
e 65 67
e 67 68
e 69 70
e 70 71
e 71 72
e 72 73
e 73 74
e 74 75
e 75 76
e 75 77
e 77 78
e 79 80
e 80 81
e 80 82
e 82 83
e 83 84
e 84 85
e 85 86
e 86 87
e 87 88
e 87 90
e 88 89
e 90 91
e 91 92
e 93 97
e 94 95
e 95 96
e 96 98
e 97 102
e 98 99
e 98 100
e 100 101
e 100 103
e 102 104
e 102 108
e 103 105
e 105 106
e 106 107
e 107 110
e 108 109
e 109 121
e 109 124
e 110 111
e 110 113
e 111 112
e 113 114
e 113 117
e 114 115
e 115 116
e 117 118
e 117 119
e 119 120
e 121 122
e 122 123
e 124 125
e 125 126
e 126 127
e 126 130
e 127 128
e 128 129
e 129 131
e 130 132
e 130 133
e 132 134
e 133 135
e 135 136
l 107
t 1 116
